32	10
16	14	19	13	11	15	15	17	17	11
0	0	0	0	0	0	0	0	0	0	0	10	2	4	6	9	11	15	16	29	30	31
6	2	1	11	1	5	1	1	1	3	1	4	3	13	22	28
6	13	6	7	1	8	1	1	5	1	1	3	5	18	23
2	7	1	12	1	5	1	5	4	1	1	5	7	8	22	23	28
5	5	1	17	1	9	8	1	1	1	1	4	8	10	25	26
6	1	1	15	1	6	1	1	1	4	1	3	7	17	19
7	16	3	16	5	8	1	2	5	1	1	3	18	20	24
1	2	4	1	1	6	1	1	5	1	1	2	12	19
3	14	1	14	1	4	1	1	1	1	1	2	14	27
8	13	3	1	1	4	2	4	4	1	1	2	20	21
4	3	1	8	4	1	1	1	1	1	3	1	12
10	14	5	7	1	5	1	1	1	1	1	1	17
4	16	1	1	2	4	7	1	1	6	1	1	19
5	7	1	1	1	8	1	1	1	1	1	1	18
4	16	1	7	1	6	1	1	1	4	2	1	27
8	11	1	7	6	6	4	7	3	1	1	1	22
1	6	1	14	1	5	1	1	4	1	5	1	32
7	5	1	15	1	11	1	1	3	1	1	1	32
9	12	5	7	4	2	1	1	1	1	1	1	32
8	14	1	19	6	8	1	2	1	1	1	1	32
1	6	1	14	1	7	1	1	1	1	1	1	32
2	11	1	2	1	5	1	5	1	1	1	1	32
1	16	10	19	1	9	2	1	1	5	1	1	32
7	12	1	16	1	3	1	1	1	1	1	1	32
4	11	4	1	1	7	1	1	1	12	1	1	32
2	10	8	6	1	3	1	1	3	1	1	1	32
6	5	1	11	1	7	1	1	1	1	1	1	32
8	5	1	7	1	5	1	1	1	1	1	1	32
3	13	1	8	1	5	1	4	1	4	1	1	32
7	13	3	1	1	9	7	3	1	1	4	1	32
5	9	1	9	1	1	1	1	5	1	1	1	32
0	0	0	0	0	0	0	0	0	0	0	0
